p cnf 30 88
1 2 3 0
4 5 6 0
7 8 9 0
10 11 12 0
13 14 15 0
16 17 18 0
19 20 21 0
22 23 24 0
25 26 27 0
28 29 30 0
-1 -2 0
-1 -3 0
-2 -3 0
-4 -5 0
-4 -6 0
-5 -6 0
-7 -8 0
-7 -9 0
-8 -9 0
-10 -11 0
-10 -12 0
-11 -12 0
-13 -14 0
-13 -15 0
-14 -15 0
-16 -17 0
-16 -18 0
-17 -18 0
-19 -20 0
-19 -21 0
-20 -21 0
-22 -23 0
-22 -24 0
-23 -24 0
-25 -26 0
-25 -27 0
-26 -27 0
-28 -29 0
-28 -30 0
-29 -30 0
-1 -7 0
-4 -10 0
-7 -1 0
-10 -4 0
-13 -16 0
-13 -19 0
-16 -13 0
-16 -19 0
-19 -13 0
-19 -16 0
-22 -4 0
-22 -16 0
-25 -1 0
-25 -7 0
-28 -10 0
-28 -13 0
-2 -8 0
-5 -11 0
-8 -2 0
-11 -5 0
-14 -17 0
-14 -20 0
-17 -14 0
-17 -20 0
-20 -14 0
-20 -17 0
-23 -5 0
-23 -17 0
-26 -2 0
-26 -8 0
-29 -11 0
-29 -14 0
-3 -9 0
-6 -12 0
-9 -3 0
-12 -6 0
-15 -18 0
-15 -21 0
-18 -15 0
-18 -21 0
-21 -15 0
-21 -18 0
-24 -6 0
-24 -18 0
-27 -3 0
-27 -9 0
-30 -12 0
-30 -15 0
